p cnf 1406 2182
6 7 -12 101 0
-12 -26 -101 102 0
-26 34 -102 103 0
34 -36 -86 -103 0
-2 45 47 104 0
47 -62 -104 105 0
-62 64 100 -105 0
-3 -70 -92 106 0
-3 -70 -92 -106 0
21 -65 -88 107 0
21 -65 -88 -107 0
-47 -60 82 108 0
-47 -60 82 -108 0
-4 6 -7 109 0
-4 6 -7 -109 0
23 -24 -38 110 0
-38 48 -110 111 0
48 -79 -81 -111 0
24 33 -45 112 0
-45 -49 85 -112 0
18 -21 -66 97 0
8 19 30 113 0
30 33 62 -113 0
-1 5 -16 -21 0
-3 -8 87 114 0
-3 -8 87 -114 0
26 27 -43 115 0
-43 47 -115 116 0
47 49 -116 117 0
49 70 -117 118 0
70 -77 -86 -118 0
18 55 70 119 0
18 55 70 -119 0
-36 -61 72 120 0
72 73 -120 121 0
73 -88 -91 -121 0
50 53 75 122 0
75 -90 -99 -122 0
50 -71 83 -84 0
36 -42 -54 123 0
-54 -75 -123 124 0
-75 77 -124 125 0
77 78 -125 126 0
78 -80 -126 127 0
-80 82 -127 128 0
82 83 -128 129 0
83 -85 -90 -129 0
-28 49 -70 130 0
-28 49 -70 -130 0
11 -29 131 132 0
11 -29 131 -132 0
11 -29 -131 132 0
11 -29 -131 -132 0
-13 21 22 133 0
22 41 -133 134 0
41 56 -134 135 0
56 -79 -135 136 0
-79 -88 100 -136 0
27 -63 137 138 0
27 -63 137 -138 0
27 -63 -137 138 0
27 -63 -137 -138 0
-6 11 28 139 0
28 -56 -139 140 0
-56 74 -92 -140 0
12 49 66 141 0
12 49 66 -141 0
-3 9 31 142 0
31 45 -142 143 0
45 -60 -143 144 0
-60 -76 -84 -144 0
60 -64 145 146 0
60 -64 145 -146 0
60 -64 -145 146 0
60 -64 -145 -146 0
-25 -32 147 148 0
-25 -32 147 -148 0
-25 -32 -147 148 0
-25 -32 -147 -148 0
-3 50 64 149 0
64 -75 86 -149 0
20 52 -98 150 0
20 52 -98 -150 0
33 40 49 151 0
49 51 -151 152 0
51 56 -152 153 0
56 67 -153 154 0
67 -81 -154 155 0
-81 -84 94 -155 0
7 8 15 156 0
15 -25 -156 157 0
-25 -52 -157 158 0
-52 60 69 -158 0
-3 14 -31 159 0
-31 36 -159 160 0
36 -56 -160 161 0
-56 -87 -96 -161 0
14 18 -47 162 0
-47 -79 98 -162 0
19 -31 56 -73 0
-2 21 54 163 0
54 -87 -100 -163 0
9 23 -29 164 0
-29 32 -164 165 0
32 50 -52 -165 0
8 37 99 166 0
8 37 99 -166 0
-50 -88 167 168 0
-50 -88 167 -168 0
-50 -88 -167 168 0
-50 -88 -167 -168 0
70 71 -76 169 0
-76 -90 -169 170 0
-90 98 -100 -170 0
12 54 82 171 0
12 54 82 -171 0
-1 14 19 172 0
19 -32 -172 173 0
-32 36 -173 174 0
36 -58 -174 175 0
-58 62 -94 -175 0
-54 77 -92 -97 0
-7 -18 -55 176 0
-55 79 -86 -176 0
16 52 -55 177 0
-55 62 97 -177 0
-13 96 98 178 0
-13 96 98 -178 0
21 24 -51 179 0
-51 57 82 -179 0
-7 10 -20 71 0
14 29 36 180 0
36 -41 -180 181 0
-41 94 95 -181 0
-53 93 99 182 0
-53 93 99 -182 0
-11 -52 55 183 0
55 -76 -93 -183 0
7 -13 -17 184 0
-17 -66 -184 185 0
-66 85 -185 186 0
85 90 99 -186 0
16 21 -36 187 0
-36 -62 -187 188 0
-62 73 -188 189 0
73 75 -189 190 0
75 -96 -98 -190 0
1 -36 -65 191 0
1 -36 -65 -191 0
46 74 192 193 0
46 74 192 -193 0
46 74 -192 193 0
46 74 -192 -193 0
-13 -23 -46 194 0
-46 53 -194 195 0
53 -59 90 -195 0
47 -51 196 197 0
47 -51 196 -197 0
47 -51 -196 197 0
47 -51 -196 -197 0
12 13 -48 198 0
-48 79 -198 199 0
79 82 -199 200 0
82 -89 95 -200 0
20 21 -28 201 0
-28 -33 -201 202 0
-33 -39 98 -202 0
-7 14 -15 203 0
-15 -52 -203 204 0
-52 61 -204 205 0
61 -64 -205 206 0
-64 -88 -92 -206 0
-29 -35 -48 207 0
-48 75 -207 208 0
75 77 94 -208 0
14 21 -22 209 0
-22 60 -209 210 0
60 -70 -210 211 0
-70 86 -97 -211 0
-3 8 -15 212 0
-15 -30 -212 213 0
-30 -34 -213 214 0
-34 -39 -69 -214 0
6 -32 -46 215 0
-46 -50 -215 216 0
-50 -54 -216 217 0
-54 64 -83 -217 0
17 24 -35 218 0
-35 -64 66 -218 0
-7 -34 -37 50 0
46 -51 58 219 0
58 59 94 -219 0
3 -13 33 220 0
33 35 -220 221 0
35 48 -221 222 0
48 49 -222 223 0
49 65 -223 224 0
65 69 -224 225 0
69 -75 -99 -225 0
28 41 44 226 0
44 46 -226 227 0
46 -60 -77 -227 0
-17 -40 -46 228 0
-17 -40 -46 -228 0
29 30 -36 229 0
-36 57 -76 -229 0
26 52 -65 230 0
-65 -75 -86 -230 0
-9 17 39 231 0
39 45 88 -231 0
13 -54 -61 88 0
45 -58 -81 -100 0
-7 -19 43 232 0
43 44 -55 -232 0
17 -22 29 233 0
29 56 -233 234 0
56 -57 -234 235 0
-57 -68 -235 236 0
-68 -83 -86 -236 0
-6 -9 -45 237 0
-45 -50 -237 238 0
-50 56 -238 239 0
56 57 85 -239 0
-3 7 65 240 0
65 -94 97 -240 0
-54 59 88 241 0
-54 59 88 -241 0
41 -63 72 242 0
72 -73 -76 -242 0
-3 -78 88 243 0
-3 -78 88 -243 0
11 -12 29 244 0
29 30 -244 245 0
30 41 -245 246 0
41 49 -246 247 0
49 -57 -64 -247 0
-25 29 -37 248 0
-37 40 -248 249 0
40 -41 -249 250 0
-41 75 87 -250 0
-41 57 75 -81 0
60 -82 -86 -98 0
22 -35 52 76 0
-18 -27 59 251 0
-18 -27 59 -251 0
-31 -33 39 87 0
-5 -28 -34 69 0
6 16 17 252 0
17 -20 -252 253 0
-20 -30 -253 254 0
-30 45 -254 255 0
45 -56 -255 256 0
-56 95 96 -256 0
1 -7 10 257 0
10 65 89 -257 0
-3 19 59 -98 0
9 -16 25 258 0
25 -32 -258 259 0
-32 56 65 -259 0
-11 14 20 260 0
20 -27 -260 261 0
-27 -30 -261 262 0
-30 51 -262 263 0
51 -59 -263 264 0
-59 -76 94 -264 0
-12 15 -18 265 0
-18 -48 -265 266 0
-48 85 -89 -266 0
4 -5 -23 267 0
-23 -63 -267 268 0
-63 66 -268 269 0
66 -78 -269 270 0
-78 91 -96 -270 0
11 50 62 271 0
62 -84 -93 -271 0
15 42 -70 72 0
-5 60 272 273 0
-5 60 272 -273 0
-5 60 -272 273 0
-5 60 -272 -273 0
13 -50 -79 274 0
13 -50 -79 -274 0
-20 -98 275 276 0
-20 -98 275 -276 0
-20 -98 -275 276 0
-20 -98 -275 -276 0
17 -31 -43 277 0
-43 72 -78 -277 0
-11 -25 31 278 0
31 38 -278 279 0
38 65 -279 280 0
65 -69 -280 281 0
-69 -88 -97 -281 0
-65 73 282 283 0
-65 73 282 -283 0
-65 73 -282 283 0
-65 73 -282 -283 0
-59 72 97 284 0
-59 72 97 -284 0
-10 26 41 285 0
41 -47 -285 286 0
-47 -57 64 -286 0
-12 36 72 82 0
-2 -13 -18 287 0
-18 89 -90 -287 0
-5 -20 -96 288 0
-5 -20 -96 -288 0
-7 22 40 92 0
-4 -16 -22 289 0
-22 45 -289 290 0
45 50 -290 291 0
50 66 -291 292 0
66 68 -292 293 0
68 -76 -293 294 0
-76 -94 97 -294 0
7 47 52 67 0
-1 -21 295 296 0
-1 -21 295 -296 0
-1 -21 -295 296 0
-1 -21 -295 -296 0
7 -8 20 297 0
20 65 -297 298 0
65 -85 99 -298 0
-13 16 18 -39 0
-1 29 40 299 0
40 -42 -299 300 0
-42 -46 -300 301 0
-46 73 -301 302 0
73 89 91 -302 0
-13 17 -34 303 0
-34 47 96 -303 0
-1 -39 -74 304 0
-1 -39 -74 -304 0
5 -59 -71 91 0
1 54 -90 -99 0
9 22 -42 305 0
-42 -51 -305 306 0
-51 -58 -306 307 0
-58 62 -307 308 0
62 -75 99 -308 0
-13 -24 -41 309 0
-41 44 -59 -309 0
-2 -34 -84 310 0
-2 -34 -84 -310 0
-35 55 -60 63 0
17 -27 31 311 0
31 34 -311 312 0
34 -36 -312 313 0
-36 -45 -313 314 0
-45 -71 -314 315 0
-71 -82 93 -315 0
20 25 32 316 0
32 -81 -316 317 0
-81 86 -99 -317 0
26 64 318 319 0
26 64 318 -319 0
26 64 -318 319 0
26 64 -318 -319 0
-29 39 57 320 0
57 64 65 -320 0
8 16 19 321 0
19 26 -321 322 0
26 -59 -322 323 0
-59 62 -323 324 0
62 -75 -92 -324 0
-13 -15 -54 325 0
-13 -15 -54 -325 0
-16 -21 24 326 0
24 38 -326 327 0
38 -49 -327 328 0
-49 71 -328 329 0
71 90 -96 -329 0
7 10 16 330 0
16 -32 -91 -330 0
-23 -49 64 -89 0
14 -16 49 331 0
49 60 -94 -331 0
2 23 24 332 0
24 65 -79 -332 0
4 19 31 333 0
31 53 62 -333 0
18 -21 63 334 0
18 -21 63 -334 0
-3 -47 -51 335 0
-3 -47 -51 -335 0
55 86 336 337 0
55 86 336 -337 0
55 86 -336 337 0
55 86 -336 -337 0
1 -37 59 338 0
59 -82 -338 339 0
-82 -86 -98 -339 0
24 27 30 340 0
30 -33 -340 341 0
-33 -77 -341 342 0
-77 79 -342 343 0
79 -80 -343 344 0
-80 90 -344 345 0
90 -94 -97 -345 0
39 -50 -61 100 0
40 58 -63 346 0
40 58 -63 -346 0
11 -28 -67 347 0
-67 72 -347 348 0
72 76 -348 349 0
76 -88 -349 350 0
-88 90 94 -350 0
-12 -31 48 351 0
48 -73 -351 352 0
-73 95 99 -352 0
41 51 -60 353 0
41 51 -60 -353 0
37 41 -44 -92 0
-8 76 354 355 0
-8 76 354 -355 0
-8 76 -354 355 0
-8 76 -354 -355 0
41 -56 67 356 0
67 73 -356 357 0
73 76 -357 358 0
76 78 -92 -358 0
-15 -20 -27 359 0
-27 -46 -359 360 0
-46 -70 -360 361 0
-70 -75 -88 -361 0
52 57 -60 -73 0
41 -43 -46 362 0
-46 -67 -90 -362 0
22 -32 79 363 0
22 -32 79 -363 0
26 34 98 364 0
26 34 98 -364 0
72 73 -88 365 0
72 73 -88 -365 0
40 -49 70 86 0
31 -43 47 366 0
47 49 -366 367 0
49 -52 60 -367 0
-6 41 47 -84 0
8 -32 368 369 0
8 -32 368 -369 0
8 -32 -368 369 0
8 -32 -368 -369 0
-10 -20 31 370 0
31 32 -370 371 0
32 -73 -371 372 0
-73 -77 -81 -372 0
-1 11 -32 45 0
28 62 -67 373 0
-67 -84 -373 374 0
-84 91 96 -374 0
1 48 -50 375 0
-50 -55 -375 376 0
-55 59 -376 377 0
59 65 -377 378 0
65 76 85 -378 0
2 19 -37 379 0
-37 -50 -379 380 0
-50 54 -380 381 0
54 66 -381 382 0
66 -69 -382 383 0
-69 75 -81 -383 0
-7 -10 -26 384 0
-7 -10 -26 -384 0
-4 -13 -33 -87 0
3 -4 -14 385 0
-14 -17 -385 386 0
-17 20 -386 387 0
20 -28 -387 388 0
-28 -30 -74 -388 0
2 24 -47 389 0
-47 -51 92 -389 0
-3 -8 -40 390 0
-40 53 -87 -390 0
-31 -33 57 391 0
57 85 -95 -391 0
-42 -45 -70 83 0
46 -86 90 392 0
46 -86 90 -392 0
-34 59 82 87 0
40 -94 393 394 0
40 -94 393 -394 0
40 -94 -393 394 0
40 -94 -393 -394 0
6 40 -54 395 0
-54 -69 74 -395 0
-29 -41 58 396 0
-29 -41 58 -396 0
20 58 -64 397 0
-64 86 -397 398 0
86 87 -99 -398 0
-28 30 -50 399 0
-50 54 -399 400 0
54 -69 -400 401 0
-69 83 -401 402 0
83 86 88 -402 0
-52 72 92 403 0
92 95 96 -403 0
-26 46 -60 82 0
-37 69 80 404 0
-37 69 80 -404 0
1 -53 -85 88 0
16 -25 28 405 0
28 48 49 -405 0
-22 58 77 406 0
77 79 81 -406 0
75 80 407 408 0
75 80 407 -408 0
75 80 -407 408 0
75 80 -407 -408 0
4 -13 -25 409 0
-25 -53 -409 410 0
-53 -66 -76 -410 0
36 47 411 412 0
36 47 411 -412 0
36 47 -411 412 0
36 47 -411 -412 0
5 -35 41 -77 0
31 50 51 413 0
51 -86 95 -413 0
-7 -27 38 414 0
38 -43 -414 415 0
-43 -62 -415 416 0
-62 64 -416 417 0
64 69 -75 -417 0
9 72 -74 418 0
9 72 -74 -418 0
-1 -11 54 419 0
54 56 -419 420 0
56 -71 73 -420 0
-12 -79 421 422 0
-12 -79 421 -422 0
-12 -79 -421 422 0
-12 -79 -421 -422 0
30 -74 -97 423 0
30 -74 -97 -423 0
-56 -69 91 424 0
-56 -69 91 -424 0
-13 15 -16 425 0
-13 15 -16 -425 0
32 -33 -47 426 0
-47 57 -426 427 0
57 -88 -90 -427 0
6 33 42 428 0
42 -54 -428 429 0
-54 -58 94 -429 0
27 -30 -75 430 0
27 -30 -75 -430 0
17 28 39 431 0
39 42 71 -431 0
-10 14 -25 -30 0
-12 -17 96 432 0
-12 -17 96 -432 0
35 36 -52 433 0
-52 56 -433 434 0
56 58 -434 435 0
58 79 -435 436 0
79 -86 -95 -436 0
27 64 79 437 0
27 64 79 -437 0
-8 -45 -70 438 0
-70 81 -438 439 0
81 82 -439 440 0
82 -97 -100 -440 0
59 62 84 -99 0
59 -80 92 -93 0
45 -51 -63 441 0
-63 -84 -441 442 0
-84 86 -442 443 0
86 87 -443 444 0
87 -89 -444 445 0
-89 91 -445 446 0
91 92 -446 447 0
92 -94 -99 -447 0
-37 58 -79 448 0
-37 58 -79 -448 0
9 20 -38 449 0
9 20 -38 -449 0
-22 30 31 450 0
31 50 -450 451 0
50 65 -451 452 0
65 -88 -97 -452 0
-1 36 -72 453 0
-1 36 -72 -453 0
-15 20 37 454 0
37 -65 83 -454 0
21 58 75 455 0
21 58 75 -455 0
-12 18 40 456 0
40 54 -456 457 0
54 -69 -457 458 0
-69 -85 -93 -458 0
69 -73 459 460 0
69 -73 459 -460 0
69 -73 -459 460 0
69 -73 -459 -460 0
-34 -41 461 462 0
-34 -41 461 -462 0
-34 -41 -461 462 0
-34 -41 -461 -462 0
-7 -12 59 463 0
59 73 -463 464 0
73 -84 95 -464 0
3 29 61 465 0
3 29 61 -465 0
42 49 58 466 0
58 60 -466 467 0
60 65 -467 468 0
65 76 -468 469 0
76 -90 -93 -469 0
-5 16 17 470 0
17 24 -470 471 0
24 -34 -471 472 0
-34 -61 -472 473 0
-61 69 78 -473 0
7 -12 23 474 0
23 -40 -474 475 0
-40 45 -475 476 0
45 -65 -96 -476 0
23 27 -56 -88 0
-9 28 -40 477 0
-40 65 -82 -477 0
-11 30 63 -96 0
8 18 32 478 0
32 -38 -478 479 0
-38 41 -479 480 0
41 59 -61 -480 0
17 46 481 482 0
17 46 481 -482 0
17 46 -481 482 0
17 46 -481 -482 0
7 -9 -59 -97 0
79 80 -85 -99 0
21 63 91 483 0
21 63 91 -483 0
-3 14 484 485 0
-3 14 484 -485 0
-3 14 -484 485 0
-3 14 -484 -485 0
-1 -6 -10 486 0
-10 23 -486 487 0
23 28 -487 488 0
28 -41 -488 489 0
-41 45 -489 490 0
45 -67 71 -490 0
-63 86 491 492 0
-63 86 491 -492 0
-63 86 -491 492 0
-63 86 -491 -492 0
6 -16 -27 493 0
-27 -64 -493 494 0
-64 88 -95 -494 0
5 7 25 495 0
25 61 -495 496 0
61 -64 71 -496 0
30 33 -60 497 0
-60 66 91 -497 0
-16 19 -29 80 0
3 4 35 498 0
3 4 35 -498 0
2 8 23 499 0
23 38 -499 500 0
38 45 -50 -500 0
-2 -62 501 502 0
-2 -62 501 -502 0
-2 -62 -501 502 0
-2 -62 -501 -502 0
8 -20 -61 503 0
-61 64 -85 -503 0
-5 -7 16 504 0
16 -22 -504 505 0
-22 -26 -505 506 0
-26 -75 -506 507 0
-75 94 99 -507 0
25 30 -45 508 0
-45 -71 -508 509 0
-71 82 84 -509 0
10 -45 -74 510 0
10 -45 -74 -510 0
55 83 511 512 0
55 83 511 -512 0
55 83 -511 512 0
55 83 -511 -512 0
-22 -32 -55 513 0
-55 62 -513 514 0
62 -68 99 -514 0
4 56 -60 515 0
4 56 -60 -515 0
7 21 22 516 0
22 -57 -516 517 0
-57 88 -517 518 0
88 91 -98 -518 0
-1 29 30 519 0
30 -37 -519 520 0
-37 -42 -48 -520 0
3 -16 23 521 0
23 -24 -521 522 0
-24 -61 -522 523 0
-61 70 -523 524 0
70 -73 -97 -524 0
-6 -38 -44 525 0
-44 -57 -525 526 0
-57 84 86 -526 0
23 30 -31 527 0
-31 69 -527 528 0
69 -79 95 -528 0
-12 17 -24 529 0
-24 -39 -529 530 0
-39 -43 -530 531 0
-43 -48 -78 -531 0
15 -41 -55 532 0
-55 -59 -532 533 0
-59 -63 -533 534 0
-63 73 -92 -534 0
26 33 -44 535 0
-44 -73 75 -535 0
3 -16 -43 536 0
-43 -46 59 -536 0
-8 55 -60 537 0
-60 67 68 -537 0
12 -22 42 538 0
42 44 -538 539 0
44 57 -539 540 0
57 58 -540 541 0
58 74 -541 542 0
74 78 -84 -542 0
37 50 53 543 0
53 55 -543 544 0
55 -69 -86 -544 0
-26 -49 -55 545 0
-26 -49 -55 -545 0
38 39 -45 546 0
-45 66 -85 -546 0
35 61 -74 547 0
-74 -84 -95 -547 0
-18 26 48 548 0
48 54 97 -548 0
-9 22 -63 549 0
-63 -70 97 -549 0
54 -67 -90 550 0
54 -67 -90 -550 0
-16 -28 52 551 0
52 53 -64 -551 0
26 -31 38 552 0
38 65 -552 553 0
65 -66 -553 554 0
-66 -77 -554 555 0
-77 -92 -95 -555 0
-3 6 -15 556 0
-15 -18 -556 557 0
-18 -54 -557 558 0
-54 -59 -558 559 0
-59 65 -559 560 0
65 66 94 -560 0
-12 16 74 561 0
-12 16 74 -561 0
-63 68 97 562 0
-63 68 97 -562 0
50 -72 81 563 0
81 -82 -85 -563 0
-12 -87 97 564 0
-12 -87 97 -564 0
20 -21 38 565 0
38 39 -565 566 0
39 50 -566 567 0
50 58 -567 568 0
58 -66 -73 -568 0
-34 38 -46 569 0
-46 49 -569 570 0
49 -50 -570 571 0
-50 84 96 -571 0
-7 -50 66 572 0
66 84 -90 -572 0
69 -91 -95 573 0
69 -91 -95 -573 0
31 -44 61 85 0
-27 -36 68 574 0
-27 -36 68 -574 0
-40 -42 48 96 0
4 5 -14 575 0
-14 -37 -575 576 0
-37 -43 78 -576 0
15 25 26 577 0
26 -29 -577 578 0
-29 -39 -578 579 0
-39 54 -65 -579 0
-7 10 -16 580 0
-16 19 -580 581 0
19 74 98 -581 0
-12 28 68 582 0
-12 28 68 -582 0
18 -25 34 583 0
34 -41 -583 584 0
-41 65 74 -584 0
-20 23 29 585 0
29 -36 -585 586 0
-36 -39 -586 587 0
-39 60 -587 588 0
60 -68 -85 -588 0
-5 -21 24 589 0
24 -27 -589 590 0
-27 -57 -590 591 0
-57 94 -98 -591 0
-2 13 -14 592 0
-14 -32 -592 593 0
-32 -72 -593 594 0
-72 75 -594 595 0
75 -87 100 -595 0
20 59 71 -93 0
24 51 -79 81 0
-14 69 596 597 0
-14 69 596 -597 0
-14 69 -596 597 0
-14 69 -596 -597 0
-7 22 -59 -88 0
-6 26 -40 598 0
-40 -52 -598 599 0
-52 81 -87 -599 0
-20 -34 40 600 0
40 47 -600 601 0
47 74 -601 602 0
74 -78 -97 -602 0
6 -74 82 603 0
6 -74 82 -603 0
-68 81 604 605 0
-68 81 604 -605 0
-68 81 -604 605 0
-68 81 -604 -605 0
-19 35 50 606 0
50 -56 -606 607 0
-56 -66 73 -607 0
-21 45 81 91 0
-11 -22 -27 608 0
-27 98 -99 -608 0
-5 -60 609 610 0
-5 -60 609 -610 0
-5 -60 -609 610 0
-5 -60 -609 -610 0
1 -14 -29 611 0
1 -14 -29 -611 0
-3 6 -16 612 0
-16 31 49 -612 0
-13 -25 -31 613 0
-31 54 -613 614 0
54 59 -614 615 0
59 75 -615 616 0
75 77 -85 -616 0
16 56 61 76 0
8 -10 -30 617 0
8 -10 -30 -617 0
16 -17 29 618 0
29 74 -94 -618 0
-22 25 27 -48 0
5 -10 38 619 0
38 49 -619 620 0
49 -51 -620 621 0
-51 -55 -621 622 0
-55 82 -622 623 0
82 98 100 -623 0
-22 26 -43 56 0
-10 -48 -83 624 0
-10 -48 -83 -624 0
-8 14 -68 625 0
-68 -80 100 -625 0
8 10 63 -99 0
18 31 -51 626 0
-51 -60 -626 627 0
-60 -67 -627 628 0
-67 71 -84 -628 0
-22 -33 -50 629 0
-50 53 -68 -629 0
-11 -43 -93 630 0
-11 -43 -93 -630 0
2 -44 64 631 0
64 -69 72 -631 0
-8 26 -36 632 0
-36 40 -632 633 0
40 43 -633 634 0
43 -45 -634 635 0
-45 -54 -635 636 0
-54 -80 -91 -636 0
29 34 41 637 0
41 -90 95 -637 0
35 73 638 639 0
35 73 638 -639 0
35 73 -638 639 0
35 73 -638 -639 0
-1 -38 48 640 0
48 66 -640 641 0
66 73 74 -641 0
17 25 28 642 0
28 35 -642 643 0
35 -68 -643 644 0
-68 71 -84 -644 0
-5 -22 -24 -63 0
8 -25 -30 645 0
-30 33 -645 646 0
33 47 -646 647 0
47 -58 -647 648 0
-58 80 99 -648 0
16 19 25 649 0
25 -41 -100 -649 0
-3 -32 -58 650 0
-58 73 -98 -650 0
23 -25 58 69 0
11 32 33 651 0
33 74 -88 -651 0
13 28 40 652 0
40 62 71 -652 0
27 -30 72 653 0
27 -30 72 -653 0
-12 -56 -60 654 0
-12 -56 -60 -654 0
-7 64 95 655 0
-7 64 95 -655 0
-3 -6 10 656 0
10 -46 -656 657 0
-46 68 -657 658 0
68 -91 -95 -658 0
9 33 36 659 0
36 39 -659 660 0
39 -42 -660 661 0
-42 -86 -661 662 0
-86 88 -662 663 0
88 -89 99 -663 0
48 -59 -70 664 0
48 -59 -70 -664 0
3 49 67 -72 0
4 8 20 665 0
20 -37 -665 666 0
-37 -76 -666 667 0
-76 81 -667 668 0
81 85 -668 669 0
85 -97 99 -669 0
-21 -40 57 -82 0
-1 50 60 -69 0
46 50 -53 670 0
46 50 -53 -670 0
-1 -17 85 671 0
-1 -17 85 -671 0
50 -65 76 672 0
76 82 -672 673 0
82 85 87 -673 0
-24 -29 -36 674 0
-36 -55 -674 675 0
-55 -79 -675 676 0
-79 -84 -97 -676 0
61 66 -69 -82 0
50 -52 -55 677 0
-55 -76 -99 -677 0
7 31 -41 88 0
35 43 678 679 0
35 43 678 -679 0
35 43 -678 679 0
35 43 -678 -679 0
81 82 -97 680 0
81 82 -97 -680 0
49 -58 79 95 0
40 -52 56 681 0
56 58 -681 682 0
58 -61 69 -682 0
-15 50 56 -93 0
17 -41 683 684 0
17 -41 683 -684 0
17 -41 -683 684 0
17 -41 -683 -684 0
-19 -29 40 685 0
40 41 -685 686 0
41 -82 -686 687 0
-82 -86 -90 -687 0
5 -10 20 688 0
20 -41 54 -688 0
37 71 -76 689 0
-76 -93 100 -689 0
10 57 -59 690 0
-59 -64 -690 691 0
-64 68 -691 692 0
68 74 -692 693 0
74 85 94 -693 0
11 28 -46 694 0
-46 -59 -694 695 0
-59 63 -695 696 0
63 75 -696 697 0
75 -78 -697 698 0
-78 84 -90 -698 0
-16 -19 -35 699 0
-16 -19 -35 -699 0
-13 -22 -42 -96 0
1 12 -13 700 0
-13 -23 -700 701 0
-23 -26 -701 702 0
-26 29 -702 703 0
29 -37 -703 704 0
-37 -39 -83 -704 0
11 33 -56 -60 0
-4 -12 -17 705 0
-17 -49 -705 706 0
-49 62 -96 -706 0
-40 -42 66 94 0
-51 -54 -79 92 0
55 -95 99 707 0
55 -95 99 -707 0
-3 -43 68 708 0
68 91 96 -708 0
15 49 -63 709 0
-63 -78 83 -709 0
-8 -38 -50 67 0
29 67 -73 710 0
-73 95 96 -710 0
1 4 5 711 0
5 -37 -711 712 0
-37 39 -712 713 0
39 -59 -713 714 0
-59 63 -714 715 0
63 -78 -715 716 0
-78 92 -716 717 0
92 95 97 -717 0
-61 81 718 719 0
-61 81 718 -719 0
-61 81 -718 719 0
-61 81 -718 -719 0
-35 55 -69 91 0
-46 78 89 720 0
-46 78 89 -720 0
10 -62 -94 97 0
25 -34 37 721 0
37 57 58 -721 0
-31 67 86 722 0
86 88 90 -722 0
84 89 723 724 0
84 89 723 -724 0
84 89 -723 724 0
84 89 -723 -724 0
13 -22 -34 725 0
-34 -62 -725 726 0
-62 -75 -85 -726 0
45 56 727 728 0
45 56 727 -728 0
45 56 -727 728 0
45 56 -727 -728 0
4 14 -44 729 0
-44 50 -86 -729 0
40 59 60 -95 0
-16 -36 47 730 0
47 -52 -730 731 0
-52 -71 -731 732 0
-71 73 -732 733 0
73 78 -84 -733 0
18 81 -83 734 0
18 81 -83 -734 0
-10 -20 63 735 0
63 65 -735 736 0
65 -80 82 -736 0
-6 -21 -88 737 0
-6 -21 -88 -737 0
39 -83 738 739 0
39 -83 738 -739 0
39 -83 -738 739 0
39 -83 -738 -739 0
-65 -78 100 740 0
-65 -78 100 -740 0
-22 24 -25 741 0
-22 24 -25 -741 0
3 41 -42 742 0
-42 -56 -742 743 0
-56 66 -743 744 0
66 -97 -99 -744 0
15 42 51 745 0
51 -63 -67 -745 0
36 -39 -84 746 0
36 -39 -84 -746 0
26 37 48 747 0
48 51 80 -747 0
5 -19 23 748 0
23 -34 -39 -748 0
-4 -21 -26 749 0
-4 -21 -26 -749 0
44 45 -61 750 0
-61 65 -750 751 0
65 67 -751 752 0
67 88 -95 -752 0
-6 -9 36 753 0
36 73 88 -753 0
-8 -17 -54 754 0
-54 -79 -754 755 0
-79 90 91 -755 0
1 -2 68 756 0
68 71 93 -756 0
1 -3 -8 757 0
-8 68 -89 -757 0
54 -60 -72 758 0
-72 -93 -758 759 0
-93 95 -759 760 0
95 96 -760 761 0
96 -98 100 -761 0
-46 67 -88 762 0
-46 67 -88 -762 0
-6 18 29 -47 0
-31 39 40 763 0
40 59 -763 764 0
59 74 -97 -764 0
-10 45 -81 765 0
-10 45 -81 -765 0
-24 29 46 766 0
46 -74 92 -766 0
-2 30 67 84 0
-21 27 49 767 0
49 63 -767 768 0
63 -78 -94 -768 0
78 -82 769 770 0
78 -82 769 -770 0
78 -82 -769 770 0
78 -82 -769 -770 0
4 -43 -50 771 0
4 -43 -50 -771 0
-16 -21 68 772 0
68 82 -93 -772 0
-2 12 38 70 0
51 58 67 773 0
67 69 -773 774 0
69 74 -774 775 0
74 85 -99 -775 0
-5 -14 25 776 0
25 26 -776 777 0
26 33 -777 778 0
33 -43 -778 779 0
-43 -70 -779 780 0
-70 78 87 -780 0
16 -21 32 781 0
32 -49 -781 782 0
-49 54 -74 -782 0
32 36 -65 -97 0
-5 -18 37 783 0
37 -49 -783 784 0
-49 74 -91 -784 0
-20 39 72 785 0
-20 39 72 -785 0
17 27 41 786 0
41 -47 -786 787 0
-47 50 -787 788 0
50 68 -70 -788 0
-6 26 55 789 0
-6 26 55 -789 0
-8 16 -18 -68 0
88 89 -94 790 0
88 89 -94 -790 0
30 72 100 791 0
30 72 100 -791 0
-12 23 792 793 0
-12 23 792 -793 0
-12 23 -792 793 0
-12 23 -792 -793 0
-10 -15 -19 794 0
-19 32 -794 795 0
32 37 -795 796 0
37 -50 -796 797 0
-50 54 -797 798 0
54 -76 80 -798 0
-4 -72 95 799 0
-4 -72 95 -799 0
15 -25 -36 800 0
-36 -73 97 -800 0
14 16 34 801 0
34 70 -801 802 0
70 -73 80 -802 0
39 42 -69 803 0
-69 75 100 -803 0
-25 28 -38 89 0
12 13 44 804 0
12 13 44 -804 0
11 17 32 805 0
32 47 -805 806 0
47 54 -59 -806 0
-11 -71 807 808 0
-11 -71 807 -808 0
-11 -71 -807 808 0
-11 -71 -807 -808 0
3 8 17 809 0
17 -29 -809 810 0
-29 -70 -810 811 0
-70 73 -94 -811 0
-14 -16 25 812 0
25 -31 -812 813 0
-31 -35 -84 -813 0
34 39 -54 814 0
-54 -80 -814 815 0
-80 91 93 -815 0
19 -54 -83 816 0
19 -54 -83 -816 0
8 64 92 817 0
8 64 92 -817 0
-31 -41 -64 818 0
-64 71 -77 -818 0
-7 13 65 -69 0
16 30 31 819 0
31 -66 -819 820 0
-66 97 100 -820 0
-6 -10 38 821 0
38 39 -821 822 0
39 -46 -822 823 0
-46 -51 -57 -823 0
12 -25 32 824 0
32 -33 -824 825 0
-33 -70 -825 826 0
-70 79 -82 -826 0
4 -15 -47 827 0
-47 -53 -827 828 0
-53 -66 -828 829 0
-66 93 95 -829 0
32 39 -40 830 0
-40 78 -88 -830 0
-1 -21 26 831 0
26 -33 -831 832 0
-33 -48 -832 833 0
-48 -52 -833 834 0
-52 -57 -87 -834 0
24 -50 -64 835 0
-64 -68 -835 836 0
-68 -72 82 -836 0
35 42 -53 837 0
-53 -82 84 -837 0
12 -25 -52 838 0
-52 -55 68 -838 0
-17 64 -69 839 0
-69 76 77 -839 0
21 -31 51 840 0
51 53 -840 841 0
53 66 -841 842 0
66 67 -842 843 0
67 83 -843 844 0
83 87 -93 -844 0
46 59 62 845 0
62 64 -845 846 0
64 -78 -95 -846 0
-35 -58 -64 847 0
-35 -58 -64 -847 0
-4 47 48 848 0
48 -54 -848 849 0
-54 75 -94 -849 0
6 44 70 850 0
70 -83 -93 -850 0
6 -27 35 851 0
35 57 63 -851 0
-18 31 -72 -79 0
63 -76 -99 852 0
63 -76 -99 -852 0
-1 -4 -25 853 0
-25 -37 -853 854 0
-37 61 -854 855 0
61 62 -73 -855 0
3 35 -40 856 0
-40 47 -856 857 0
47 74 -857 858 0
74 -75 -86 -858 0
-12 15 -24 859 0
-24 -27 -859 860 0
-27 -63 -860 861 0
-63 -68 -861 862 0
-68 74 75 -862 0
6 -21 25 83 0
-72 77 863 864 0
-72 77 863 -864 0
-72 77 -863 864 0
-72 77 -863 -864 0
6 59 -81 865 0
-81 90 -865 866 0
90 -91 -94 -866 0
-21 -96 867 868 0
-21 -96 867 -868 0
-21 -96 -867 868 0
-21 -96 -867 -868 0
5 29 -30 869 0
-30 47 -869 870 0
47 48 -870 871 0
48 59 -871 872 0
59 67 -872 873 0
67 -75 -82 -873 0
-43 47 -55 874 0
-55 58 -874 875 0
58 -59 93 -875 0
-4 -16 -59 876 0
-59 75 -876 877 0
75 93 -99 -877 0
78 -100 878 879 0
78 -100 878 -879 0
78 -100 -878 879 0
78 -100 -878 -879 0
40 -53 70 94 0
5 -36 -45 77 0
-49 -51 57 880 0
-49 -51 57 -880 0
13 14 -23 881 0
-23 -46 -881 882 0
-46 -52 87 -882 0
7 24 34 883 0
34 35 -883 884 0
35 -38 -884 885 0
-38 -48 -885 886 0
-48 63 -74 -886 0
-16 19 -25 887 0
-25 28 83 -887 0
-21 37 77 888 0
-21 37 77 -888 0
27 -34 43 889 0
43 -50 -889 890 0
-50 74 83 -890 0
3 -7 -29 891 0
-29 32 -891 892 0
32 38 -892 893 0
38 -45 -893 894 0
-45 -48 -894 895 0
-48 69 -895 896 0
69 -77 -94 -896 0
9 -14 -30 897 0
-30 33 -897 898 0
33 -36 -66 -898 0
-2 -11 22 899 0
22 -23 -899 900 0
-23 -41 -900 901 0
-41 -81 -901 902 0
-81 84 -96 -902 0
29 68 80 903 0
29 68 80 -903 0
33 60 -88 90 0
-23 78 904 905 0
-23 78 904 -905 0
-23 78 -904 905 0
-23 78 -904 -905 0
-16 31 -68 -97 0
-6 -15 35 906 0
35 -49 -906 907 0
-49 -61 -907 908 0
-61 90 -96 -908 0
-29 -43 49 909 0
49 56 -909 910 0
56 83 -87 -910 0
15 -83 91 911 0
15 -83 91 -911 0
-77 90 912 913 0
-77 90 912 -913 0
-77 90 -912 913 0
-77 90 -912 -913 0
-28 44 59 914 0
59 -65 -914 915 0
-65 -75 82 -915 0
7 -8 -30 916 0
-30 54 -916 917 0
54 90 100 -917 0
-20 -31 -36 918 0
-20 -31 -36 -918 0
-14 -69 919 920 0
-14 -69 919 -920 0
-14 -69 -919 920 0
-14 -69 -919 -920 0
10 -23 -38 921 0
10 -23 -38 -921 0
-12 15 -25 922 0
-25 40 58 -922 0
-22 -34 -40 923 0
-40 63 -923 924 0
63 68 -924 925 0
68 84 -925 926 0
84 86 -94 -926 0
25 65 70 85 0
-3 17 -19 -39 0
25 -26 38 83 0
7 9 -31 927 0
-31 34 -927 928 0
34 36 -57 -928 0
14 -19 47 929 0
47 58 -929 930 0
58 -60 -930 931 0
-60 -64 91 -931 0
-31 35 -52 65 0
9 -19 -57 -92 0
-8 -17 23 932 0
23 -77 -89 -932 0
17 19 72 933 0
17 19 72 -933 0
27 40 -60 934 0
-60 -69 -934 935 0
-69 -76 -935 936 0
-76 80 -93 -936 0
-2 -31 -42 937 0
-42 -59 -937 938 0
-59 62 -77 -938 0
-20 -52 939 940 0
-20 -52 939 -940 0
-20 -52 -939 940 0
-20 -52 -939 -940 0
11 -53 73 941 0
73 -78 81 -941 0
4 -17 35 942 0
35 -45 -942 943 0
-45 49 -943 944 0
49 52 -944 945 0
52 -54 -945 946 0
-54 -63 -946 947 0
-63 -89 -100 -947 0
38 43 50 -99 0
44 82 948 949 0
44 82 948 -949 0
44 82 -948 949 0
44 82 -948 -949 0
-10 -47 57 950 0
57 75 -950 951 0
75 82 83 -951 0
26 34 37 952 0
37 44 -952 953 0
44 -77 -953 954 0
-77 80 -93 -954 0
8 -14 -31 955 0
-31 -33 -72 -955 0
17 -34 -39 956 0
-39 42 -956 957 0
42 56 -957 958 0
56 -67 89 -958 0
-7 25 28 959 0
28 34 -50 -959 0
-12 -41 -67 82 0
32 -34 67 78 0
20 41 42 960 0
42 83 -97 -960 0
22 37 49 961 0
49 71 80 -961 0
36 -39 81 962 0
36 -39 81 -962 0
4 -21 -65 -69 0
-4 -16 73 963 0
-4 -16 73 -963 0
8 -12 -15 964 0
-15 19 -964 965 0
19 -55 -965 966 0
-55 77 -100 -966 0
18 42 45 967 0
45 48 -967 968 0
48 -51 -968 969 0
-51 -95 -969 970 0
-95 97 -98 -970 0
57 -68 -79 971 0
57 -68 -79 -971 0
-6 8 12 972 0
12 58 -972 973 0
58 76 -81 -973 0
13 17 29 974 0
29 -46 -974 975 0
-46 -85 -975 976 0
-85 90 94 -976 0
-30 -49 66 -91 0
-10 59 69 -78 0
55 59 -62 977 0
55 59 -62 -977 0
-10 -26 94 978 0
-10 -26 94 -978 0
-6 59 -74 979 0
-74 85 -979 980 0
85 91 -980 981 0
91 94 96 -981 0
-33 -38 -45 982 0
-45 -64 -982 983 0
-64 -88 -93 -983 0
-8 70 75 984 0
75 -78 -91 -984 0
59 -61 -64 -85 0
16 40 -50 97 0
-6 44 52 985 0
-6 44 52 -985 0
4 90 91 986 0
4 90 91 -986 0
58 -67 88 987 0
58 -67 88 -987 0
-2 49 -61 988 0
-61 65 -988 989 0
65 67 -989 990 0
67 -70 78 -990 0
-24 59 65 991 0
-24 59 65 -991 0
26 -50 992 993 0
26 -50 992 -993 0
26 -50 -992 993 0
26 -50 -992 -993 0
-28 -38 49 994 0
49 50 -994 995 0
50 -91 -995 996 0
-91 -95 -99 -996 0
-2 9 14 997 0
14 -19 -997 998 0
-19 29 -998 999 0
29 -50 63 -999 0
3 46 80 -85 0
19 66 -68 1000 0
-68 -73 -1000 1001 0
-73 77 -1001 1002 0
77 83 94 -1002 0
20 37 -55 1003 0
-55 -68 -1003 1004 0
-68 72 -1004 1005 0
72 84 -1005 1006 0
84 -87 -1006 1007 0
-87 93 -99 -1007 0
-5 -25 -28 -44 0
-22 -31 -51 1008 0
-22 -31 -51 -1008 0
10 21 -22 1009 0
-22 -32 -1009 1010 0
-32 -35 -1010 1011 0
-35 38 -1011 1012 0
38 -46 -1012 1013 0
-46 -48 -92 -1013 0
-5 20 42 1014 0
42 -65 -69 -1014 0
3 -13 -21 1015 0
-21 -26 -1015 1016 0
-26 -58 71 -1016 0
-49 -51 75 1017 0
-49 -51 75 -1017 0
1 -96 1018 1019 0
1 -96 1018 -1019 0
1 -96 -1018 1019 0
1 -96 -1018 -1019 0
-4 8 -60 1020 0
-60 -63 -88 -1020 0
5 64 1021 1022 0
5 64 1021 -1022 0
5 64 -1021 1022 0
5 64 -1021 -1022 0
-12 -52 77 100 0
24 58 -72 1023 0
-72 -87 92 -1023 0
4 5 -17 1024 0
-17 -47 -1024 1025 0
-47 -59 76 -1025 0
1 4 6 1026 0
6 38 -1026 1027 0
38 76 -82 -1027 0
10 13 14 1028 0
14 -46 -1028 1029 0
-46 48 -1029 1030 0
48 -68 -1030 1031 0
-68 72 -87 -1031 0
-70 90 1032 1033 0
-70 90 1032 -1033 0
-70 90 -1032 1033 0
-70 90 -1032 -1033 0
-44 64 -78 100 0
-3 6 -55 1034 0
-55 87 98 -1034 0
19 -71 1035 1036 0
19 -71 1035 -1036 0
19 -71 -1035 1036 0
19 -71 -1035 -1036 0
34 -43 46 1037 0
46 66 67 -1037 0
-40 76 95 1038 0
95 97 99 -1038 0
93 98 1039 1040 0
93 98 1039 -1040 0
93 98 -1039 1040 0
93 98 -1039 -1040 0
22 -31 -43 1041 0
-43 -71 -1041 1042 0
-71 -84 -94 -1042 0
54 65 1043 1044 0
54 65 1043 -1044 0
54 65 -1043 1044 0
54 65 -1043 -1044 0
-4 13 23 1045 0
23 -53 -1045 1046 0
-53 59 -95 -1046 0
49 68 69 1047 0
49 68 69 -1047 0
-25 -45 56 1048 0
56 -61 -1048 1049 0
-61 -80 -1049 1050 0
-80 82 -1050 1051 0
82 87 -93 -1051 0
27 90 -92 1052 0
27 90 -92 -1052 0
-19 -29 72 1053 0
72 74 -1053 1054 0
74 -89 91 -1054 0
-15 -30 -97 1055 0
-15 -30 -97 -1055 0
9 48 -92 1056 0
9 48 -92 -1056 0
-74 -87 1057 1058 0
-74 -87 1057 -1058 0
-74 -87 -1057 1058 0
-74 -87 -1057 -1058 0
-6 -8 -31 1059 0
-31 33 -34 -1059 0
12 50 -51 1060 0
-51 -65 75 -1060 0
24 51 60 1061 0
60 -72 -76 -1061 0
45 -48 -93 1062 0
45 -48 -93 -1062 0
35 46 57 1063 0
57 60 89 -1063 0
14 -28 32 1064 0
32 -43 -48 -1064 0
-4 -13 -30 -35 0
53 54 -70 1065 0
-70 74 -1065 1066 0
74 76 97 -1066 0
-15 -18 45 1067 0
45 82 97 -1067 0
2 -17 -26 1068 0
-26 -63 -1068 1069 0
-63 -88 -1069 1070 0
-88 99 100 -1070 0
10 -11 77 80 0
-2 4 5 1071 0
5 -7 -1071 1072 0
-7 9 -1072 1073 0
9 10 -1073 1074 0
10 -12 -1074 1075 0
-12 -17 -1075 1076 0
-17 77 -98 -1076 0
63 -69 -81 1077 0
63 -69 -81 -1077 0
-55 76 -97 1078 0
-55 76 -97 -1078 0
-6 -15 27 1079 0
27 38 -56 -1079 0
-40 48 49 1080 0
49 68 83 -1080 0
1 -19 54 -90 0
-33 38 55 -83 0
-3 -11 39 1081 0
39 76 93 -1081 0
-30 36 58 1082 0
58 72 -87 -1082 0
87 -91 1083 1084 0
87 -91 1083 -1084 0
87 -91 -1083 1084 0
87 -91 -1083 -1084 0
-2 13 -52 -59 0
-25 -30 77 91 0
-8 -11 21 1085 0
21 47 79 -1085 0
60 67 76 1086 0
76 78 -1086 1087 0
78 83 94 -1087 0
-14 -23 34 1088 0
34 35 -1088 1089 0
35 42 -1089 1090 0
42 -52 -1090 1091 0
-52 -79 -1091 1092 0
-79 87 96 -1092 0
-6 25 -30 1093 0
-30 41 -1093 1094 0
41 -58 -1094 1095 0
-58 63 -83 -1095 0
41 45 -74 1096 0
41 45 -74 -1096 0
-14 -27 46 1097 0
46 -58 -1097 1098 0
-58 83 -100 -1098 0
-29 48 81 1099 0
-29 48 81 -1099 0
26 36 50 1100 0
50 -56 -1100 1101 0
-56 59 -1101 1102 0
59 77 -79 -1102 0
-15 35 64 1103 0
-15 35 64 -1103 0
-3 -17 25 1104 0
25 -27 -77 -1104 0
9 97 98 1105 0
9 97 98 -1105 0
39 81 1106 1107 0
39 81 1106 -1107 0
39 81 -1106 1107 0
39 81 -1106 -1107 0
-21 32 1108 1109 0
-21 32 1108 -1109 0
-21 32 -1108 1109 0
-21 32 -1108 -1109 0
4 -19 -24 1110 0
-24 -28 -1110 1111 0
-28 41 -1111 1112 0
41 46 -1112 1113 0
46 -59 -1113 1114 0
-59 63 -1114 1115 0
63 -85 89 -1115 0
6 -13 -81 1116 0
6 -13 -81 -1116 0
24 -34 -45 -82 0
23 25 43 1117 0
43 79 -1117 1118 0
79 -82 89 -1118 0
9 -40 1119 1120 0
9 -40 1119 -1120 0
9 -40 -1119 1120 0
9 -40 -1119 -1120 0
48 51 -78 84 0
-34 37 -47 98 0
21 22 53 1121 0
21 22 53 -1121 0
20 26 41 1122 0
41 56 -1122 1123 0
56 63 -68 -1123 0
-3 -20 -80 1124 0
-3 -20 -80 -1124 0
12 17 26 1125 0
26 -38 -1125 1126 0
-38 -79 82 -1126 0
2 -23 -25 1127 0
-25 34 -1127 1128 0
34 -40 -1128 1129 0
-40 -44 -93 -1129 0
43 48 -63 1130 0
-63 -89 100 -1130 0
1 28 -63 -92 0
17 73 1131 1132 0
17 73 1131 -1132 0
17 73 -1131 1132 0
17 73 -1131 -1132 0
-40 -50 -73 1133 0
-73 80 -86 -1133 0
6 9 -16 1134 0
-16 22 -1134 1135 0
22 74 -78 -1135 0
25 39 40 -75 0
-15 -19 47 1136 0
47 48 -1136 1137 0
48 -55 -1137 1138 0
-55 -60 -66 -1138 0
2 4 21 1139 0
21 -34 -1139 1140 0
-34 41 -1140 1141 0
41 -42 -1141 1142 0
-42 -79 -1142 1143 0
-79 88 -91 -1143 0
13 -24 -56 1144 0
-56 -62 -75 -1144 0
41 48 -49 1145 0
-49 87 -97 -1145 0
-10 -30 35 1146 0
35 -42 -1146 1147 0
-42 -57 -1147 1148 0
-57 -61 -1148 1149 0
-61 -66 -96 -1149 0
33 -59 -73 1150 0
-73 -77 -1150 1151 0
-77 -81 91 -1151 0
44 51 -62 1152 0
-62 -91 93 -1152 0
21 -34 -61 1153 0
-61 -64 77 -1153 0
-2 -26 73 1154 0
73 -78 -1154 1155 0
-78 85 86 -1155 0
-4 30 -40 1156 0
-40 60 -1156 1157 0
60 62 -1157 1158 0
62 75 -1158 1159 0
75 76 -1159 1160 0
76 92 96 -1160 0
55 68 71 1161 0
71 73 -87 -1161 0
-3 -44 -67 -73 0
-2 -13 56 1162 0
56 57 -1162 1163 0
57 -63 84 -1163 0
15 53 79 -92 0
15 -36 44 1164 0
44 66 72 -1164 0
-8 -27 40 1165 0
40 -81 -88 -1165 0
72 -85 1166 1167 0
72 -85 1166 -1167 0
72 -85 -1166 1167 0
72 -85 -1166 -1167 0
-10 -13 -34 1168 0
-34 -46 -1168 1169 0
-46 70 -1169 1170 0
70 71 -82 -1170 0
12 44 -49 1171 0
-49 56 -1171 1172 0
56 83 -1172 1173 0
83 -84 -95 -1173 0
-21 24 -33 1174 0
-33 -36 -1174 1175 0
-36 -72 -1175 1176 0
-72 -77 -1176 1177 0
-77 83 84 -1177 0
15 -30 34 92 0
-3 -81 86 1178 0
-3 -81 86 -1178 0
-5 15 68 1179 0
68 -90 -1179 1180 0
-90 99 -100 -1180 0
2 14 38 1181 0
38 -39 -1181 1182 0
-39 56 -1182 1183 0
56 57 -1183 1184 0
57 68 -1184 1185 0
68 76 -1185 1186 0
76 -84 -91 -1186 0
2 -8 -52 1187 0
-52 56 -1187 1188 0
56 -64 -1188 1189 0
-64 67 -68 -1189 0
-9 -13 -25 1190 0
-25 -68 84 -1190 0
3 87 1191 1192 0
3 87 1191 -1192 0
3 87 -1191 1192 0
3 87 -1191 -1192 0
49 -62 79 1193 0
49 -62 79 -1193 0
14 -45 -54 86 0
-58 -60 66 1194 0
-58 -60 66 -1194 0
22 23 -32 1195 0
-32 -55 -1195 1196 0
-55 -61 96 -1196 0
16 33 43 1197 0
43 44 -1197 1198 0
44 -47 -1198 1199 0
-47 -57 -1199 1200 0
-57 72 -83 -1200 0
-25 28 -34 1201 0
-34 37 92 -1201 0
-30 46 86 1202 0
-30 46 86 -1202 0
36 -43 52 1203 0
52 -59 -1203 1204 0
-59 83 92 -1204 0
-3 21 1205 1206 0
-3 21 1205 -1206 0
-3 21 -1205 1206 0
-3 21 -1205 -1206 0
12 -16 -38 1207 0
-38 41 -1207 1208 0
41 47 -1208 1209 0
47 -54 -1209 1210 0
-54 -57 -1210 1211 0
-57 78 -86 -1211 0
-5 18 -23 1212 0
-23 -39 -1212 1213 0
-39 42 -1213 1214 0
42 -45 -75 -1214 0
-11 -20 31 1215 0
31 -32 -1215 1216 0
-32 -50 -1216 1217 0
-50 -90 93 -1217 0
38 77 89 1218 0
38 77 89 -1218 0
42 69 -97 99 0
-6 -32 87 1219 0
-6 -32 87 -1219 0
-25 40 -77 1220 0
-25 40 -77 -1220 0
-5 -47 1221 1222 0
-5 -47 1221 -1222 0
-5 -47 -1221 1222 0
-5 -47 -1221 -1222 0
-15 -24 44 1223 0
44 -58 -1223 1224 0
-58 -70 99 -1224 0
-38 -52 58 1225 0
58 65 -1225 1226 0
65 92 -96 -1226 0
24 -92 100 1227 0
24 -92 100 -1227 0
-86 99 1228 1229 0
-86 99 1228 -1229 0
-86 99 -1228 1229 0
-86 99 -1228 -1229 0
9 -37 53 1230 0
53 68 -1230 1231 0
68 -74 -1231 1232 0
-74 -84 91 -1232 0
16 -17 -39 1233 0
-39 63 99 -1233 0
-29 -40 -45 1234 0
-29 -40 -45 -1234 0
-23 -78 1235 1236 0
-23 -78 1235 -1236 0
-23 -78 -1235 1236 0
-23 -78 -1235 -1236 0
19 -32 -47 1237 0
19 -32 -47 -1237 0
-3 -21 24 1238 0
24 -34 -1238 1239 0
-34 49 67 -1239 0
-31 -43 -49 1240 0
-49 72 -1240 1241 0
72 77 -1241 1242 0
77 93 95 -1242 0
34 74 79 94 0
-12 26 -28 -48 0
34 -35 47 92 0
16 18 -40 1243 0
-40 43 -1243 1244 0
43 45 -66 -1244 0
23 -28 56 1245 0
56 67 -1245 1246 0
67 -69 -1246 1247 0
-69 -73 100 -1247 0
-1 -40 44 1248 0
44 -61 74 -1248 0
18 -28 -66 1249 0
18 -28 -66 -1249 0
-17 -26 32 1250 0
32 -86 -98 -1250 0
-2 26 28 81 0
36 49 -69 1251 0
-69 -78 -1251 1252 0
-78 -85 89 -1252 0
-11 -40 -51 1253 0
-51 -68 -1253 1254 0
-68 71 -86 -1254 0
-29 -61 1255 1256 0
-29 -61 1255 -1256 0
-29 -61 -1255 1256 0
-29 -61 -1255 -1256 0
-9 20 -62 1257 0
-62 82 -1257 1258 0
82 -87 90 -1258 0
-8 13 -26 1259 0
-26 44 -1259 1260 0
44 -54 -1260 1261 0
-54 58 -1261 1262 0
58 61 -1262 1263 0
61 -63 -1263 1264 0
-63 -72 -98 -1264 0
47 52 59 1265 0
47 52 59 -1265 0
53 91 1266 1267 0
53 91 1266 -1267 0
53 91 -1266 1267 0
53 91 -1266 -1267 0
-2 -19 -56 1268 0
-56 66 -1268 1269 0
66 84 -1269 1270 0
84 91 92 -1270 0
35 43 46 1271 0
46 53 -1271 1272 0
53 -86 89 -1272 0
17 -23 -40 1273 0
-40 -42 -81 -1273 0
26 -43 -48 1274 0
-48 51 -1274 1275 0
51 65 -1275 1276 0
65 -76 98 -1276 0
-16 34 37 1277 0
37 43 -59 -1277 0
-21 -50 -76 91 0
-6 41 -43 1278 0
-43 76 87 -1278 0
29 50 51 92 0
31 46 58 1279 0
58 80 89 -1279 0
45 -48 90 1280 0
45 -48 90 -1280 0
13 -30 -74 -78 0
-9 -13 -25 82 0
-4 6 -7 1281 0
-7 17 -1281 1282 0
17 -21 -1282 1283 0
-21 -24 -1283 1284 0
-24 28 -1284 1285 0
28 -64 86 -1285 0
27 51 54 1286 0
54 57 -60 -1286 0
66 -77 -88 1287 0
66 -77 -88 -1287 0
3 -15 17 1288 0
17 21 -1288 1289 0
21 67 -1289 1290 0
67 85 -90 -1290 0
22 26 38 1291 0
38 -55 -1291 1292 0
-55 -94 99 -1292 0
-39 -58 75 -100 0
-19 68 78 -87 0
3 64 68 -71 0
3 5 -19 -35 0
-2 -15 68 1293 0
68 -83 -1293 1294 0
-83 94 100 -1294 0
-42 -47 -54 1295 0
-54 -73 -97 -1295 0
-17 79 84 1296 0
84 -87 -100 -1296 0
6 68 -70 1297 0
-70 -73 -94 -1297 0
25 49 -59 1298 0
25 49 -59 -1298 0
-15 53 61 1299 0
-15 53 61 -1299 0
13 99 100 1300 0
13 99 100 -1300 0
67 -76 97 1301 0
67 -76 97 -1301 0
-11 58 -70 1302 0
-70 74 -1302 1303 0
74 76 -1303 1304 0
76 -79 87 -1304 0
-33 68 74 1305 0
-33 68 74 -1305 0
-4 -8 35 -59 0
-37 -47 58 1306 0
58 59 -100 -1306 0
-11 18 23 1307 0
23 -28 -1307 1308 0
-28 38 -1308 1309 0
38 -59 72 -1309 0
3 12 55 1310 0
55 89 -94 -1310 0
2 -8 28 1311 0
28 75 -1311 1312 0
75 -77 -1312 1313 0
-77 -82 -1313 1314 0
-82 86 92 -1314 0
29 46 -64 1315 0
-64 -77 -1315 1316 0
-77 81 -1316 1317 0
81 93 -96 -1317 0
-14 -34 -37 -53 0
-1 -31 -40 -60 0
19 30 -31 1318 0
-31 -41 -1318 1319 0
-41 -44 -1319 1320 0
-44 47 -1320 1321 0
47 -55 -57 -1321 0
-14 29 51 1322 0
51 -74 -78 -1322 0
12 -22 -30 1323 0
-30 -35 -1323 1324 0
-35 -67 80 -1324 0
-5 -58 -60 84 0
-13 17 -69 1325 0
-69 -72 -97 -1325 0
9 14 73 1326 0
9 14 73 -1326 0
-21 -61 86 1327 0
-21 -61 86 -1327 0
1 67 1328 1329 0
1 67 1328 -1329 0
1 67 -1328 1329 0
1 67 -1328 -1329 0
33 67 -81 -96 0
13 14 -26 1330 0
-26 -56 -1330 1331 0
-56 -68 85 -1331 0
10 13 15 1332 0
15 47 -1332 1333 0
47 85 -91 -1333 0
19 22 23 1334 0
23 -55 -1334 1335 0
-55 57 -1335 1336 0
57 -77 -1336 1337 0
-77 81 -96 -1337 0
9 -79 99 1338 0
9 -79 99 -1338 0
7 -53 73 -87 0
-12 15 -64 96 0
28 -80 1339 1340 0
28 -80 1339 -1340 0
28 -80 -1339 1340 0
28 -80 -1339 -1340 0
4 6 8 1341 0
8 43 -1341 1342 0
43 -52 -1342 1343 0
-52 55 -1343 1344 0
55 75 76 -1344 0
2 7 -49 85 0
31 -40 -52 1345 0
-52 -80 -93 -1345 0
-4 63 74 1346 0
-4 63 74 -1346 0
-13 22 32 1347 0
32 -62 68 -1347 0
-2 58 77 78 0
-1 -34 -54 1348 0
-54 65 -1348 1349 0
65 -70 -1349 1350 0
-70 -89 -1350 1351 0
-89 91 96 -1351 0
36 99 1352 1353 0
36 99 1352 -1353 0
36 99 -1352 1353 0
36 99 -1352 -1353 0
-6 -28 -38 1354 0
-38 81 -1354 1355 0
81 83 -1355 1356 0
83 -98 100 -1356 0
-1 -24 -39 1357 0
-1 -24 -39 -1357 0
18 57 1358 1359 0
18 57 1358 -1359 0
18 57 -1358 1359 0
18 57 -1358 -1359 0
-83 -96 1360 1361 0
-83 -96 1360 -1361 0
-83 -96 -1360 1361 0
-83 -96 -1360 -1361 0
-15 -17 -40 1362 0
-40 42 -43 -1362 0
21 59 -60 1363 0
-60 -74 84 -1363 0
-2 33 60 1364 0
60 69 -1364 1365 0
69 -81 -85 -1365 0
54 -57 1366 1367 0
54 -57 1366 -1367 0
54 -57 -1366 1367 0
54 -57 -1366 -1367 0
44 55 66 1368 0
66 69 98 -1368 0
23 -37 41 1369 0
41 -52 -57 -1369 0
6 -13 -22 1370 0
-22 -39 -44 -1370 0
6 62 63 1371 0
63 -79 -1371 1372 0
-79 83 85 -1372 0
8 9 -24 1373 0
-24 -27 -1373 1374 0
-27 54 91 -1374 0
11 -26 -35 1375 0
-35 -72 -97 -1375 0
-7 19 -20 1376 0
-20 86 89 -1376 0
-11 13 14 1377 0
14 -16 -1377 1378 0
-16 18 -1378 1379 0
18 19 -1379 1380 0
19 -21 -1380 1381 0
-21 -26 86 -1381 0
-6 72 -78 -90 0
-64 85 1382 1383 0
-64 85 1382 -1383 0
-64 85 -1382 1383 0
-64 85 -1382 -1383 0
-15 -24 36 1384 0
36 47 -65 -1384 0
-49 57 58 1385 0
58 77 92 -1385 0
10 -28 63 -99 0
2 -42 47 1386 0
47 64 -92 -1386 0
-12 -20 48 85 0
-39 45 67 1387 0
67 81 -96 -1387 0
96 -100 1388 1389 0
96 -100 1388 -1389 0
96 -100 -1388 1389 0
96 -100 -1388 -1389 0
-11 22 -61 -68 0
-34 -39 86 100 0
3 -17 -20 1390 0
-20 30 -1390 1391 0
30 56 88 -1391 0
5 69 76 1392 0
76 85 -1392 1393 0
85 87 92 -1393 0
-23 -32 43 1394 0
43 44 -1394 1395 0
44 51 -1395 1396 0
51 -61 -1396 1397 0
-61 -88 96 -1397 0
-15 34 -39 1398 0
-39 50 -1398 1399 0
50 -67 -1399 1400 0
-67 72 -92 -1400 0
-9 50 54 -83 0
-23 -36 55 1401 0
55 -67 92 -1401 0
-38 57 90 1402 0
-38 57 90 -1402 0
35 45 59 1403 0
59 -65 -1403 1404 0
-65 68 -1404 1405 0
68 86 -88 -1405 0
-24 44 73 1406 0
-24 44 73 -1406 0
